c ---- [ banner ] ------------------------------------------------------------
c
c Kissat SAT Solver
c 
c Copyright (c) 2021-2024 Armin Biere University of Freiburg
c Copyright (c) 2019-2021 Armin Biere Johannes Kepler University Linz
c 
c Version 4.0.1 43f02cf3e992cb44653b35e5cb26f93281552ae0
c gcc (Ubuntu 13.2.0-23ubuntu4) 13.2.0 -W -Wall -O3 -DNDEBUG
c Thu Sep 12 12:27:46 CEST 2024 Linux abryzen9 6.8.0-41-generic x86_64
c
c ---- [ parsing ] -----------------------------------------------------------
c
c opened and reading DIMACS file:
c
c   /data/artifact/AMulet2.0_artifact/exp4/cnf_dc2_64/64_64_U_SP_CWT_KS_GenMul_dc2.cnf
c
c parsed 'p cnf 37813 150970' header
c closing input after reading 2959987 bytes (3 MB)
c finished parsing after 0.04 seconds
c
c ---- [ options ] -----------------------------------------------------------
c
c --stable=0                       (different from default '1')
c
c ---- [ solving ] -----------------------------------------------------------
c
c  seconds switched rate     size/glue tier1  binary           remaining
c         MB reductions conflicts size  tier2     irredundant
c          level restarts redundant glue  trail           variables
c
c *  0.04 12 0 0 0  0 0   0   0 0.0 0 0 0 0 0% 35806 115162 37810 100%
c (  0.06 13 0 0 0  0 0   0   0 0.0 0 0 0 0 0% 35806 115162 37810 100%
c .  0.07 13 0 0 0  0 0   0   0 0.0 0 0 0 0 0% 35802 115162 37810 100%
c c  0.19 21 0 0 0  0 0   0   0 0.0 0 0 0 0 0% 44178 100245 33622 89%
c d  0.20 21 0 0 0  0 0   0   0 0.0 0 0 0 0 0% 35802 100245 33622 89%
c =  0.26 21 0 0 0  0 0   0   0 0.0 0 0 0 0 0% 35774 100245 33027 87%
c d  0.26 21 0 0 0  0 0   0   0 0.0 0 0 0 0 0% 34584 100245 33027 87%
c f  0.36 20 0 0 0  0 0   0   0 0.0 0 0 0 0 0% 35770 96049 35001 93%
c e  0.55 28 0 0 0  0 0   0   0 0.0 0 0 0 0 0% 24793 104518 25578 68%
c )  0.55 28 0 0 0  0 0   0   0 0.0 0 0 0 0 0% 24793 104518 25578 68%
c {  0.58 30 0 0 0  0 0   0   0 0.0 0 0 2 6 0% 24793 104518 25578 68%
c -  0.78 30 163 0 1 230 25 1002 675 2.3 10 4 3 8 19% 24912 104511 25578 68%
c -  1.13 30 242 0 2 391 31 2004 1404 3.2 15 5 3 8 24% 24988 104510 25578 68%
c c  1.34 24 241 0 2 478 31 2507 1846 3.4 17 5 3 8 24% 25734 104043 25146 67%
c d  1.35 24 241 0 2 478 31 2507 1840 3.4 17 5 3 8 24% 24870 104043 25146 67%
c u  1.38 24 241 0 2 478 31 2507 1365 3.4 17 5 3 8 24% 23612 104043 25146 67%
c v  1.40 24 241 0 2 478 31 2507 1178 3.4 17 5 3 8 24% 23612 104043 25146 67%
c w  1.43 24 241 0 2 478 31 2507 1178 3.4 17 5 3 8 24% 23612 104043 25146 67%
c x  1.45 25 241 0 2 478 31 2507 1173 3.4 17 5 3 8 24% 23711 103530 25146 67%
c =  1.54 27 241 0 2 478 31 2507 1173 3.4 17 5 3 8 24% 24325 103530 24839 66%
c
c  seconds   switched   rate       size/glue tier1    binary           remaining
c         MB  reductions conflicts       size  tier2      irredundant
c           level restarts    redundant    glue   trail           variables
c
c d  1.55 27 241 0 2 478 31 2507 1166 3.4 17 5 3 8 24% 23701 103530 24838 66%
c t  1.56 27 241 0 2 478 31 2507 1166 3.4 17 5 3 8 24% 23660 103530 24838 66%
c f  1.60 27 241 0 2 478 31 2507 1166 3.4 17 5 3 8 24% 24029 102563 25281 67%
c u  1.69 27 241 0 2 478 31 2507 1066 3.4 17 5 3 8 24% 24052 102563 25281 67%
c v  1.71 27 241 0 2 478 31 2507 1026 3.4 17 5 3 8 24% 24052 102563 25281 67%
c w  1.74 27 241 0 2 478 31 2507 1021 3.4 17 5 3 8 24% 24052 102563 25281 67%
c x  1.77 27 241 0 2 478 31 2507 1021 3.4 17 5 3 8 24% 24054 102137 25281 67%
c =  1.86 27 241 0 2 478 31 2507 1021 3.4 17 5 3 8 24% 24678 102137 24969 66%
c d  1.87 27 241 0 2 478 31 2507 1020 3.4 17 5 3 8 24% 24024 102137 24969 66%
c t  1.89 27 241 0 2 478 31 2507 1020 3.4 17 5 3 8 24% 24014 102137 24969 66%
c f  1.93 27 241 0 2 478 31 2507 1020 3.4 17 5 3 8 24% 24024 101776 25078 66%
c -  2.10 27 218 0 3 557 28 3418 1546 3.1 16 5 3 8 26% 24073 101776 25078 66%
c -  2.56 27 254 0 4 762 32 5150 2730 3.4 18 5 3 8 28% 24155 101769 25078 66%
c -  3.16 27 277 0 5 1040 33 7154 3957 3.4 18 5 3 8 28% 24244 101763 25078 66%
c d  3.28 27 278 0 5 1065 33 7717 4423 3.3 18 5 3 8 29% 24248 101763 25065 66%
c u  3.34 27 278 0 5 1065 33 7717 3334 3.3 18 5 3 8 29% 24260 101763 25065 66%
c v  3.38 27 278 0 5 1065 33 7717 3018 3.3 18 5 3 8 29% 24260 101763 25065 66%
c w  3.41 27 278 0 5 1065 33 7717 3018 3.3 18 5 3 8 29% 24260 101763 25065 66%
c x  3.44 27 278 0 5 1065 33 7717 3018 3.3 18 5 3 8 29% 24260 101246 25065 66%
c =  3.60 27 278 0 5 1065 33 7717 3018 3.3 18 5 3 8 29% 25502 101246 24444 65%
c
c  seconds   switched    rate       size/glue tier1    binary           remaining
c         MB  reductions  conflicts       size  tier2      irredundant
c           level  restarts    redundant    glue   trail           variables
c
c d  3.61 27 278 0 5 1065 33 7717 2959 3.3 18 5 3 8 29% 24222 101246 24444 65%
c t  3.64 27 278 0 5 1065 33 7717 2959 3.3 18 5 3 8 29% 24091 101246 24444 65%
c f  3.69 27 278 0 5 1065 33 7717 2959 3.3 18 5 3 8 29% 24753 99501 25000 66%
c u  3.82 27 278 0 5 1065 33 7717 2756 3.3 18 5 3 8 29% 24755 99501 25000 66%
c v  3.85 27 278 0 5 1065 33 7717 2669 3.3 18 5 3 8 29% 24755 99501 25000 66%
c w  3.88 27 278 0 5 1065 33 7717 2666 3.3 18 5 3 8 29% 24755 99501 25000 66%
c x  3.92 27 278 0 5 1065 33 7717 2666 3.3 18 5 3 8 29% 24762 98582 25000 66%
c =  4.07 27 278 0 5 1065 33 7717 2666 3.3 18 5 3 8 29% 25514 98582 24624 65%
c d  4.08 27 278 0 5 1065 33 7717 2648 3.3 18 5 3 8 29% 24599 98582 24624 65%
c t  4.10 27 278 0 5 1065 33 7717 2648 3.3 18 5 3 8 29% 24549 98582 24624 65%
c f  4.16 27 278 0 5 1065 33 7717 2648 3.3 18 5 3 8 29% 25100 96903 25297 67%
c -  4.58 27 287 0 6 1203 32 9390 3662 3.3 17 5 3 8 29% 25163 96902 25297 67%
c o  4.65 27 302 0 6 1212 30 10567 4601 3.2 16 5 3 8 28% 25265 96892 25297 67%
c -  4.99 27 285 0 7 1398 30 11841 5159 3.3 17 5 3 8 28% 25301 96891 25297 67%
c s  5.10 27 280 0 7 1431 29 12529 5712 3.3 17 5 3 8 28% 25331 90725 25297 67%
c e  5.20 27 280 0 7 1431 29 12529 5712 3.3 17 5 3 8 28% 21805 93400 22633 60%
c 2  5.20 27 280 0 7 1431 29 12529 5712 3.3 17 5 3 8 28% 21797 93400 22633 60%
c s  5.21 27 280 0 7 1431 29 12529 5712 3.3 17 5 3 8 28% 21829 92458 22633 60%
c e  5.23 27 280 0 7 1431 29 12529 5712 3.3 17 5 3 8 28% 21025 92883 22225 59%
c ^  5.23 27 280 0 7 1431 29 12529 5712 3.3 17 5 3 8 28% 21025 92883 22225 59%
c
c  seconds   switched    rate        size/glue tier1    binary          remaining
c         MB  reductions   conflicts       size  tier2      irredundant
c           level  restarts     redundant    glue   trail          variables
c
c -  5.54 27 261 0 8 1583 28 14487 5923 3.1 16 5 3 7 28% 21099 92871 22225 59%
c d  5.79 27 253 0 8 1690 28 15803 7034 3.0 16 5 3 7 28% 21061 92871 22180 59%
c u  5.86 27 253 0 8 1690 28 15803 5530 3.0 16 5 3 7 28% 21070 92871 22180 59%
c v  5.90 27 253 0 8 1690 28 15803 5124 3.0 16 5 3 7 28% 21071 92871 22180 59%
c w  5.92 27 253 0 8 1690 28 15803 5120 3.0 16 5 3 7 28% 21071 92871 22180 59%
c x  5.95 27 253 0 8 1690 28 15803 5118 3.0 16 5 3 7 28% 21123 92401 22180 59%
c =  6.09 27 253 0 8 1690 28 15803 5118 3.0 16 5 3 7 28% 21511 92399 21986 58%
c d  6.10 27 253 0 8 1690 28 15803 5111 3.0 16 5 3 7 28% 21008 92399 21986 58%
c t  6.12 27 253 0 8 1690 28 15803 5111 3.0 16 5 3 7 28% 20909 92399 21986 58%
c f  6.18 27 253 0 8 1690 28 15803 5111 3.0 16 5 3 7 28% 20983 92176 22049 58%
c u  6.24 27 253 0 8 1690 28 15803 4809 3.0 16 5 3 7 28% 20988 92176 22049 58%
c v  6.27 27 253 0 8 1690 28 15803 4667 3.0 16 5 3 7 28% 20988 92176 22049 58%
c w  6.30 27 253 0 8 1690 28 15803 4636 3.0 16 5 3 7 28% 20988 92176 22049 58%
c x  6.33 27 253 0 8 1690 28 15803 4635 3.0 16 5 3 7 28% 21013 91422 22049 58%
c =  6.45 27 253 0 8 1690 28 15803 4635 3.0 16 5 3 7 28% 21479 91422 21816 58%
c d  6.46 27 253 0 8 1690 28 15803 4581 3.0 16 5 3 7 28% 20965 91422 21816 58%
c t  6.47 27 253 0 8 1690 28 15803 4581 3.0 16 5 3 7 28% 20935 91422 21816 58%
c f  6.50 27 253 0 8 1690 28 15803 4581 3.0 16 5 3 7 28% 20919 91370 21830 58%
c -  6.75 27 240 0 9 1853 27 17315 5276 2.9 15 5 3 8 28% 20959 91370 21830 58%
c -  7.18 27 226 0 10 2106 26 20316 7074 2.8 14 5 3 8 28% 21052 91369 21830 58%
c
c  seconds   switched     rate        size/glue tier1    binary          remaining
c         MB   reductions   conflicts       size  tier2      irredundant
c           level   restarts     redundant    glue   trail          variables
c
c o  7.26 27 224 0 10 2152 26 20694 7426 2.7 14 5 3 8 28% 21057 91369 21830 58%
c -  7.92 27 212 0 11 2559 26 23479 8918 2.7 15 5 3 8 29% 21120 91368 21830 58%
c s  8.18 27 207 0 11 2712 26 25036 10329 2.7 15 5 3 8 29% 21173 90380 21830 58%
c e  8.29 27 207 0 11 2712 26 25036 10329 2.7 15 5 3 8 29% 17545 95571 19812 52%
c 2  8.29 27 207 0 11 2712 26 25036 10329 2.7 15 5 3 8 29% 17543 95571 19812 52%
c s  8.30 27 207 0 11 2712 26 25036 10329 2.7 15 5 3 8 29% 17640 94254 19812 52%
c e  8.31 27 207 0 11 2712 26 25036 10329 2.7 15 5 3 8 29% 17587 94326 19789 52%
c ^  8.31 27 207 0 11 2712 26 25036 10329 2.7 15 5 3 8 29% 17587 94326 19789 52%
c -  8.60 27 201 0 12 2914 25 26795 9297 2.6 14 5 3 8 29% 17613 94326 19789 52%
c c  8.66 27 201 0 12 2918 25 26935 9431 2.6 14 5 3 8 29% 17636 94256 19777 52%
c d  8.67 27 201 0 12 2918 25 26935 9421 2.6 14 5 3 8 29% 17567 94256 19750 52%
c u  8.72 27 201 0 12 2918 25 26935 7663 2.6 14 5 3 8 29% 17590 94256 19750 52%
c v  8.75 27 201 0 12 2918 25 26935 7098 2.6 14 5 3 8 29% 17590 94256 19750 52%
c w  8.76 27 201 0 12 2918 25 26935 7095 2.6 14 5 3 8 29% 17590 94256 19750 52%
c x  8.82 27 201 0 12 2918 25 26935 7090 2.6 14 5 3 8 29% 17611 93462 19750 52%
c =  9.02 27 201 0 12 2918 25 26935 7090 2.6 14 5 3 8 29% 18603 93462 19254 51%
c d  9.03 27 201 0 12 2918 25 26935 7004 2.6 14 5 3 8 29% 17550 93462 19250 51%
c t  9.04 27 201 0 12 2918 25 26935 7004 2.6 14 5 3 8 29% 17354 93462 19250 51%
c f  9.12 27 201 0 12 2918 25 26935 7004 2.6 14 5 3 8 29% 17556 92754 19386 51%
c u  9.17 27 201 0 12 2918 25 26935 6526 2.6 14 5 3 8 29% 17562 92754 19386 51%
c
c  seconds   switched     rate        size/glue tier1    binary          remaining
c         MB   reductions   conflicts       size  tier2      irredundant
c           level   restarts     redundant    glue   trail          variables
c
c v  9.20 27 201 0 12 2918 25 26935 6376 2.6 14 5 3 8 29% 17562 92754 19386 51%
c w  9.20 27 201 0 12 2918 25 26935 6373 2.6 14 5 3 8 29% 17562 92754 19386 51%
c x  9.28 27 201 0 12 2918 25 26935 6366 2.6 14 5 3 8 29% 17601 90711 19386 51%
c =  9.51 27 201 0 12 2918 25 26935 6366 2.6 14 5 3 8 29% 20083 90709 18145 48%
c d  9.51 27 201 0 12 2918 25 26935 6213 2.6 14 5 3 8 29% 17521 90709 18145 48%
c t  9.53 27 201 0 12 2918 25 26935 6213 2.6 14 5 3 8 29% 17245 90709 18145 48%
c f  9.57 27 201 0 12 2918 25 26935 6213 2.6 14 5 3 8 29% 17412 90013 18292 48%
c - 10.01 27 190 0 13 3202 24 30261 8296 2.5 14 5 3 8 29% 17465 90012 18292 48%
c - 10.54 27 183 0 14 3564 24 33866 10502 2.5 14 6 3 8 29% 17532 90011 18292 48%
c - 11.06 27 180 0 15 3910 24 37609 11457 2.5 14 6 2 7 28% 17625 90010 18292 48%
c o 11.31 27 183 0 15 4056 23 40867 14135 2.5 14 5 2 7 28% 17716 90010 18292 48%
c d 11.39 27 183 0 15 4113 23 41264 14470 2.5 14 5 2 7 28% 17679 90010 18270 48%
c u 11.45 27 183 0 15 4113 23 41264 12529 2.5 14 5 2 7 28% 17697 90010 18270 48%
c v 11.49 27 183 0 15 4113 23 41264 11852 2.5 14 5 2 7 28% 17697 90010 18270 48%
c w 11.53 27 183 0 15 4113 23 41264 11850 2.5 14 5 2 7 28% 17697 90010 18270 48%
c x 11.59 28 183 0 15 4113 23 41264 11850 2.5 14 5 2 7 28% 17697 83514 18270 48%
c = 11.77 28 183 0 15 4113 23 41264 11850 2.5 14 5 2 7 28% 18969 83505 17634 47%
c d 11.78 28 183 0 15 4113 23 41264 11777 2.5 14 5 2 7 28% 17665 83505 17633 47%
c t 11.80 28 183 0 15 4113 23 41264 11777 2.5 14 5 2 7 28% 17484 83505 17633 47%
c f 11.83 28 183 0 15 4113 23 41264 11777 2.5 14 5 2 7 28% 17518 83275 17674 47%
c
c  seconds   switched     rate         size/glue tier1    binary          remaining
c         MB   reductions   conflicts        size  tier2      irredundant
c           level   restarts      redundant    glue   trail          variables
c
c u 11.87 28 183 0 15 4113 23 41264 11294 2.5 14 5 2 7 28% 17522 83275 17674 47%
c v 11.93 28 183 0 15 4113 23 41264 10241 2.5 14 5 2 7 28% 17522 83275 17674 47%
c w 11.97 28 183 0 15 4113 23 41264 10240 2.5 14 5 2 7 28% 17522 83275 17674 47%
c x 12.03 28 183 0 15 4113 23 41264 10240 2.5 14 5 2 7 28% 17522 80139 17674 47%
c = 12.19 28 183 0 15 4113 23 41264 10240 2.5 14 5 2 7 28% 17686 80139 17592 47%
c d 12.20 28 183 0 15 4113 23 41264 10217 2.5 14 5 2 7 28% 17471 80139 17592 47%
c t 12.22 28 183 0 15 4113 23 41264 10217 2.5 14 5 2 7 28% 17458 80139 17592 47%
c f 12.24 28 183 0 15 4113 23 41264 10217 2.5 14 5 2 7 28% 17458 80135 17593 47%
c - 12.30 28 182 0 16 4139 23 41482 8956 2.5 14 5 2 7 28% 17460 80135 17593 47%
c - 12.94 28 176 0 17 4504 23 45483 11019 2.4 13 5 2 7 28% 17518 80134 17593 47%
c - 13.61 28 172 0 18 4836 22 49606 13072 2.4 13 6 2 7 28% 17591 80132 17593 47%
c s 14.02 28 173 0 18 5076 22 52148 15301 2.4 14 6 2 7 27% 17650 76914 17593 47%
c e 14.10 28 173 0 18 5076 22 52148 15301 2.4 14 6 2 7 27% 15700 80549 16454 44%
c 2 14.10 28 173 0 18 5076 22 52148 15301 2.4 14 6 2 7 27% 15693 80549 16454 44%
c s 14.11 28 173 0 18 5076 22 52148 15301 2.4 14 6 2 7 27% 15734 80087 16454 44%
c e 14.12 28 173 0 18 5076 22 52148 15301 2.4 14 6 2 7 27% 15696 80132 16435 43%
c ^ 14.13 28 173 0 18 5076 22 52148 15301 2.4 14 6 2 7 27% 15696 80132 16435 43%
c - 14.40 28 171 0 19 5292 22 53849 13500 2.4 14 6 2 7 27% 15716 80132 16435 43%
c - 14.98 28 168 0 20 5675 22 58207 15171 2.4 13 6 2 7 28% 15784 80132 16435 43%
c c 15.22 28 168 0 20 5751 22 58890 15805 2.4 13 6 2 7 28% 15827 80010 16402 43%
c
c  seconds   switched     rate         size/glue tier1    binary          remaining
c         MB   reductions   conflicts        size  tier2      irredundant
c           level   restarts      redundant    glue   trail          variables
c
c d 15.22 28 168 0 20 5751 22 58890 15696 2.4 13 6 2 7 28% 15761 80010 16402 43%
c u 15.32 28 168 0 20 5751 22 58890 13276 2.4 13 6 2 7 28% 15773 80010 16402 43%
c v 15.42 28 168 0 20 5751 22 58890 11956 2.4 13 6 2 7 28% 15778 80010 16402 43%
c w 15.45 28 168 0 20 5751 22 58890 11942 2.4 13 6 2 7 28% 15778 80010 16402 43%
c x 15.54 28 168 0 20 5751 22 58890 11936 2.4 13 6 2 7 28% 15844 79350 16402 43%
c = 15.87 28 168 0 20 5751 22 58890 11936 2.4 13 6 2 7 28% 16886 79350 15881 42%
c d 15.88 28 168 0 20 5751 22 58890 11645 2.4 13 6 2 7 28% 15791 79350 15881 42%
c t 15.91 28 168 0 20 5751 22 58890 11645 2.4 13 6 2 7 28% 15568 79350 15881 42%
c f 15.98 28 168 0 20 5751 22 58890 11645 2.4 13 6 2 7 28% 15677 78883 15943 42%
c u 16.08 28 168 0 20 5751 22 58890 10955 2.4 13 6 2 7 28% 15686 78883 15943 42%
c v 16.15 28 168 0 20 5751 22 58890 10356 2.4 13 6 2 7 28% 15688 78883 15943 42%
c w 16.18 28 168 0 20 5751 22 58890 10338 2.4 13 6 2 7 28% 15688 78883 15943 42%
c x 16.32 28 168 0 20 5751 22 58890 10313 2.4 13 6 2 7 28% 15875 75135 15943 42%
c = 16.49 28 168 0 20 5751 22 58890 10313 2.4 13 6 2 7 28% 16215 75135 15773 42%
c d 16.50 28 168 0 20 5751 22 58890 10292 2.4 13 6 2 7 28% 15868 75135 15773 42%
c t 16.52 28 168 0 20 5751 22 58890 10292 2.4 13 6 2 7 28% 15770 75135 15773 42%
c f 16.55 28 168 0 20 5751 22 58890 10292 2.4 13 6 2 7 28% 15790 75033 15787 42%
c - 17.36 28 163 0 21 6176 22 62679 12134 2.3 13 6 2 7 28% 15839 75032 15787 42%
c - 18.18 28 160 0 22 6623 22 67261 14505 2.3 13 6 2 6 28% 15907 75031 15787 42%
c o 18.86 28 156 0 22 6927 21 71249 18028 2.3 13 6 2 6 27% 15976 75031 15787 42%
c
c  seconds   switched     rate         size/glue tier1    binary          remaining
c         MB   reductions   conflicts        size  tier2      irredundant
c           level   restarts      redundant    glue   trail          variables
c
c - 19.08 28 155 0 23 7044 21 71951 16471 2.3 13 6 2 6 28% 15982 75031 15787 42%
c - 19.89 28 153 0 24 7436 21 76746 18196 2.3 13 6 2 6 27% 16060 75030 15787 42%
c c 20.44 28 151 0 24 7819 21 79947 20909 2.3 13 6 2 6 27% 16181 74626 15702 42%
c d 20.44 28 151 0 24 7819 21 79947 20538 2.3 13 6 2 6 27% 16011 74626 15702 42%
c u 20.52 28 151 0 24 7819 21 79947 17473 2.3 13 6 2 6 27% 16020 74626 15702 42%
c v 20.58 28 151 0 24 7819 21 79947 16345 2.3 13 6 2 6 27% 16021 74626 15702 42%
c w 20.62 28 151 0 24 7819 21 79947 16345 2.3 13 6 2 6 27% 16021 74626 15702 42%
c x 20.68 28 151 0 24 7819 21 79947 16337 2.3 13 6 2 6 27% 16130 73716 15702 42%
c = 21.01 28 151 0 24 7819 21 79947 16337 2.3 13 6 2 6 27% 17166 73690 15182 40%
c d 21.02 28 151 0 24 7819 21 79947 15759 2.3 13 6 2 6 27% 16055 73690 15182 40%
c t 21.03 28 151 0 24 7819 21 79947 15759 2.3 13 6 2 6 27% 15935 73690 15182 40%
c f 21.06 28 151 0 24 7819 21 79947 15759 2.3 13 6 2 6 27% 15990 73454 15213 40%
c u 21.16 28 151 0 24 7819 21 79947 14585 2.3 13 6 2 6 27% 15995 73454 15213 40%
c v 21.22 28 151 0 24 7819 21 79947 13496 2.3 13 6 2 6 27% 15996 73454 15213 40%
c w 21.29 28 151 0 24 7819 21 79947 13471 2.3 13 6 2 6 27% 15996 73454 15213 40%
c x 21.39 28 151 0 24 7819 21 79947 13468 2.3 13 6 2 6 27% 16049 72731 15213 40%
c = 21.82 28 151 0 24 7819 21 79947 13468 2.3 13 6 2 6 27% 16101 72731 15187 40%
c d 21.83 28 151 0 24 7819 21 79947 13443 2.3 13 6 2 6 27% 16048 72731 15187 40%
c t 21.86 28 151 0 24 7819 21 79947 13443 2.3 13 6 2 6 27% 16031 72731 15187 40%
c f 21.87 28 151 0 24 7819 21 79947 13443 2.3 13 6 2 6 27% 16031 72725 15188 40%
c
c  seconds   switched     rate         size/glue tier1    binary          remaining
c         MB   reductions   conflicts        size  tier2      irredundant
c           level   restarts      redundant    glue   trail          variables
c
c - 22.17 28 150 0 25 7960 21 81644 13294 2.3 13 6 2 6 27% 16050 72725 15188 40%
c - 23.07 28 147 0 26 8624 21 86647 16030 2.3 14 6 2 6 28% 16099 72724 15188 40%
c - 24.21 28 147 0 27 9256 21 91746 18653 2.4 14 6 2 6 28% 16153 72719 15188 40%
c s 25.28 28 146 0 27 9829 22 95800 22448 2.4 15 6 2 6 28% 16185 69916 15188 40%
c e 25.42 28 146 0 27 9829 22 95800 22448 2.4 15 6 2 6 28% 11739 81460 13004 34%
c 2 25.42 28 146 0 27 9829 22 95800 22448 2.4 15 6 2 6 28% 11728 81460 13004 34%
c s 25.45 28 146 0 27 9829 22 95800 22448 2.4 15 6 2 6 28% 11771 80163 13004 34%
c e 25.47 28 146 0 27 9829 22 95800 22448 2.4 15 6 2 6 28% 11678 80324 12979 34%
c ^ 25.47 28 146 0 27 9829 22 95800 22448 2.4 15 6 2 6 28% 11678 80324 12979 34%
c - 25.67 28 145 0 28 10004 22 96943 15316 2.4 15 6 2 6 28% 11681 80324 12979 34%
c - 26.32 28 143 0 29 10446 21 102234 17985 2.4 15 6 2 6 28% 11722 80318 12979 34%
c i 26.59 28 141 0 29 10612 21 104524 20083 2.4 15 6 2 6 28% 11747 80317 12978 34%
c u 26.66 28 141 0 29 10612 21 104559 17032 2.4 15 6 2 6 28% 11765 80309 12978 34%
c v 26.74 28 141 0 29 10612 21 104559 14991 2.4 15 6 2 6 28% 11765 80309 12978 34%
c w 26.79 28 141 0 29 10612 21 104559 14973 2.4 15 6 2 6 28% 11765 80309 12978 34%
c x 26.87 28 141 0 29 10612 21 104559 14956 2.4 15 6 2 6 28% 11787 79161 12978 34%
c = 27.29 28 141 0 29 10612 21 104559 14956 2.4 15 6 2 6 28% 11995 78937 12852 34%
c d 27.29 28 141 0 29 10612 21 104559 14818 2.4 15 6 2 6 28% 11783 78937 12852 34%
c t 27.30 28 141 0 29 10612 21 104559 14818 2.4 15 6 2 6 28% 11693 78937 12852 34%
c f 27.39 28 141 0 29 10612 21 104559 14818 2.4 15 6 2 6 28% 11706 78850 12860 34%
c
c  seconds   switched      rate          size/glue tier1    binary          remaining
c         MB   reductions    conflicts         size  tier2      irredundant
c           level   restarts        redundant    glue   trail          variables
c
c u 27.47 28 141 0 29 10612 21 104559 14074 2.4 15 6 2 6 28% 11712 78850 12860 34%
c v 27.52 28 141 0 29 10612 21 104559 13591 2.4 15 6 2 6 28% 11712 78850 12860 34%
c w 27.57 28 141 0 29 10612 21 104559 13494 2.4 15 6 2 6 28% 11712 78850 12860 34%
c x 27.67 28 141 0 29 10612 21 104559 13482 2.4 15 6 2 6 28% 11759 77867 12860 34%
c = 28.08 28 141 0 29 10612 21 104559 13482 2.4 15 6 2 6 28% 11873 77659 12779 34%
c d 28.09 28 141 0 29 10612 21 104559 13400 2.4 15 6 2 6 28% 11758 77659 12779 34%
c t 28.10 28 141 0 29 10612 21 104559 13400 2.4 15 6 2 6 28% 11739 77659 12779 34%
c i 28.15 28 141 0 29 10643 21 104942 13735 2.4 15 6 2 6 28% 11743 77658 12778 34%
c i 28.22 28 140 0 29 10690 21 105929 14611 2.4 15 6 2 6 28% 11753 77656 12777 34%
c i 28.26 28 140 0 29 10730 21 106302 14929 2.4 15 6 2 6 28% 11767 77653 12776 34%
c i 28.29 28 139 0 29 10767 21 107086 15642 2.4 15 6 2 6 28% 11778 77653 12775 34%
c i 28.33 28 138 0 29 10799 21 107562 16084 2.4 15 6 2 6 28% 11784 77653 12774 34%
c - 28.34 28 138 0 30 10810 21 107621 14292 2.4 15 6 2 6 28% 11766 77653 12774 34%
c i 28.43 28 137 0 30 10935 20 109090 15611 2.4 15 6 2 6 28% 11788 77653 12773 34%
c i 28.47 28 135 0 30 11009 20 110012 16419 2.4 15 6 2 6 28% 11802 77647 12772 34%
c i 28.47 28 134 0 30 11011 20 110603 16889 2.4 14 6 2 6 27% 11820 77646 12771 34%
c i 28.47 28 134 0 30 11011 20 110623 16900 2.4 14 6 2 6 27% 11824 77646 12769 34%
c i 28.47 28 134 0 30 11011 20 110647 16912 2.4 14 6 2 6 27% 11831 77646 12768 34%
c i 28.47 28 134 0 30 11011 20 110649 16911 2.4 14 6 2 6 27% 11832 77646 12760 34%
c i 28.47 28 134 0 30 11011 20 110650 16911 2.4 14 6 2 6 27% 11832 77646 12759 34%
c
c  seconds   switched      rate          size/glue tier1    binary          remaining
c         MB   reductions    conflicts         size  tier2      irredundant
c           level   restarts        redundant    glue   trail          variables
c
c i 28.47 28 134 0 30 11011 20 110652 16911 2.4 14 6 2 6 27% 11833 77646 12758 34%
c i 28.47 28 134 0 30 11011 20 110653 16911 2.4 14 6 2 6 27% 11833 77646 12757 34%
c i 28.47 28 134 0 30 11011 20 110654 16911 2.4 14 6 2 6 27% 11833 77646 12754 34%
c i 28.47 28 134 0 30 11011 20 110655 16911 2.4 14 6 2 6 27% 11833 77646 12752 34%
c i 28.47 28 134 0 30 11011 20 110660 16911 2.4 14 6 2 6 27% 11835 77646 12748 34%
c i 28.47 28 134 0 30 11011 20 110661 16911 2.4 14 6 2 6 27% 11835 77646 12742 34%
c i 28.47 28 134 0 30 11011 20 110664 16911 2.4 14 6 2 6 27% 11836 77646 12740 34%
c } 28.47 28 134 0 30 11011 20 110666 16911 2.4 14 6 2 6 27% 11836 77646 12725 34%
c 0 28.47 28 134 0 30 11011 20 110666 16911 2.4 14 6 2 6 27% 11836 77646 12725 34%
c
c ---- [ result ] ------------------------------------------------------------
c
s UNSATISFIABLE
c
c ---- [ profiling ] ---------------------------------------------------------
c
c          18.73   65.78 %  search
c          18.73   65.78 %  focused
c           9.16   32.19 %  simplify
c           8.81   30.93 %  probe
c           3.67   12.90 %  sweep
c           3.03   10.63 %  vivify
c           0.82    2.87 %  factor
c           0.65    2.27 %  eliminate
c           0.54    1.89 %  congruence
c           0.51    1.81 %  substitute
c           0.49    1.71 %  preprocess
c           0.19    0.67 %  reduce
c           0.19    0.67 %  fastel
c           0.15    0.54 %  transitive
c           0.13    0.45 %  subsume
c           0.08    0.29 %  backbone
c           0.05    0.18 %  lucky
c           0.04    0.13 %  parse
c =============================================
c          28.47  100.00 %  total
c
c ---- [ statistics ] --------------------------------------------------------
c
c chronological:                         2797                3 %  conflicts
c conflicts:                           110666             3886.92 per second
c congruent:                             4750               13 %  variables
c decisions:                          2222781               20.09 per conflict
c eliminated:                           17903               47 %  variables
c factored:                              4273               11 %  variables
c fast_eliminated:                       9423               53 %  eliminated
c fast_strengthened:                      388               11 %  per strengthened
c fast_subsumed:                          242                1 %  per subsumed
c iterations:                              21                0 %  variables
c propagations:                     125270352          4399865    per second
c reductions:                              30             3689    interval
c reordered:                                4            27666    interval
c restarts:                             11011               10    interval
c strengthened:                          3577                0 %  checks
c substituted:                          11350               30 %  variables
c subsumed:                             17190                1 %  checks
c switched:                                 0                0    interval
c vivified:                             71488               14 %  checks
c
c ---- [ glue usage ] --------------------------------------------------------
c
c focused glue 2 used 50791 clauses 27.95% accumulated 66.52% tier1
c focused glue 3 used 24192 clauses 13.31% accumulated 79.83%
c focused glue 4 used 10807 clauses  5.95% accumulated 85.77%
c focused glue 5 used  6612 clauses  3.64% accumulated 89.41%
c focused glue 6 used  4592 clauses  2.53% accumulated 91.94% tier2
c
c ---- [ resources ] ---------------------------------------------------------
c
c maximum-resident-set-size:         31219712 bytes         30 MB
c process-time:                            28s              28.47 seconds
c
c ---- [ shutting down ] -----------------------------------------------------
c
c exit 20
